
Gurobi 11.0.0 (win64) logging started Tue Jul 23 00:06:05 2024

Set parameter LogFile to value "Log_4_4_grid_Max_Step_14NIPF.log"
Set parameter MIPGap to value 0
Set parameter TimeLimit to value 14400
Gurobi Optimizer version 11.0.0 build v11.0.0rc2 (win64 - Windows 11+.0 (22631.2))

CPU model: 13th Gen Intel(R) Core(TM) i7-13650HX, instruction set [SSE2|AVX|AVX2]
Thread count: 14 physical cores, 20 logical processors, using up to 20 threads

Optimize a model with 11482 rows, 10752 columns and 45314 nonzeros
Model fingerprint: 0xd6cabd2c
Model has 6240 general constraints
Variable types: 0 continuous, 10752 integer (10752 binary)
Coefficient statistics:
  Matrix range     [1e+00, 1e+00]
  Objective range  [1e+00, 1e+00]
  Bounds range     [1e+00, 1e+00]
  RHS range        [1e+00, 1e+01]
Presolve removed 9386 rows and 9377 columns
Presolve time: 0.41s
Presolved: 2096 rows, 1375 columns, 7880 nonzeros
Variable types: 0 continuous, 1375 integer (1375 binary)

Root relaxation: objective 6.976042e+00, 1078 iterations, 0.08 seconds (0.04 work units)

    Nodes    |    Current Node    |     Objective Bounds      |     Work
 Expl Unexpl |  Obj  Depth IntInf | Incumbent    BestBd   Gap | It/Node Time

     0     0    6.97604    0  248          -    6.97604      -     -    0s
     0     0    8.11404    0  284          -    8.11404      -     -    0s
     0     0    8.14104    0  282          -    8.14104      -     -    0s
     0     0    8.14432    0  301          -    8.14432      -     -    0s
     0     0    8.24965    0  281          -    8.24965      -     -    1s
     0     0    8.80563    0  314          -    8.80563      -     -    1s
     0     0    8.80563    0  316          -    8.80563      -     -    1s
H    0     0                      13.0000000    9.45714  27.3%     -    1s
     0     0    9.56994    0  372   13.00000    9.56994  26.4%     -    1s
     0     0    9.56994    0  372   13.00000    9.56994  26.4%     -    1s
     0     2    9.56994    0  372   13.00000    9.56994  26.4%     -    1s

Cutting planes:
  Gomory: 10
  Clique: 2
  Zero half: 16
  RLT: 5
  BQP: 1

Explored 145 nodes (14538 simplex iterations) in 2.80 seconds (1.13 work units)
Thread count was 20 (of 20 available processors)

Solution count 1: 13 

Optimal solution found (tolerance 0.00e+00)
Best objective 1.300000000000e+01, best bound 1.300000000000e+01, gap 0.0000%

Gurobi 11.0.0 (win64) logging started Tue Jul 23 00:10:48 2024

Set parameter LogFile to value "Log_4_4_grid_Max_Step_14NIPF.log"
Set parameter MIPGap to value 0
Set parameter TimeLimit to value 14400
Gurobi Optimizer version 11.0.0 build v11.0.0rc2 (win64 - Windows 11+.0 (22631.2))

CPU model: 13th Gen Intel(R) Core(TM) i7-13650HX, instruction set [SSE2|AVX|AVX2]
Thread count: 14 physical cores, 20 logical processors, using up to 20 threads

Optimize a model with 11482 rows, 10752 columns and 45314 nonzeros
Model fingerprint: 0xd6cabd2c
Model has 6240 general constraints
Variable types: 0 continuous, 10752 integer (10752 binary)
Coefficient statistics:
  Matrix range     [1e+00, 1e+00]
  Objective range  [1e+00, 1e+00]
  Bounds range     [1e+00, 1e+00]
  RHS range        [1e+00, 1e+01]
Presolve removed 9386 rows and 9377 columns
Presolve time: 0.40s
Presolved: 2096 rows, 1375 columns, 7880 nonzeros
Variable types: 0 continuous, 1375 integer (1375 binary)

Root relaxation: objective 6.976042e+00, 1078 iterations, 0.11 seconds (0.04 work units)

    Nodes    |    Current Node    |     Objective Bounds      |     Work
 Expl Unexpl |  Obj  Depth IntInf | Incumbent    BestBd   Gap | It/Node Time

     0     0    6.97604    0  248          -    6.97604      -     -    0s
     0     0    8.11404    0  284          -    8.11404      -     -    0s
     0     0    8.14104    0  282          -    8.14104      -     -    0s
     0     0    8.14432    0  301          -    8.14432      -     -    0s
     0     0    8.24965    0  281          -    8.24965      -     -    1s
     0     0    8.80563    0  314          -    8.80563      -     -    1s
     0     0    8.80563    0  316          -    8.80563      -     -    1s
H    0     0                      13.0000000    9.45714  27.3%     -    1s
     0     0    9.56994    0  372   13.00000    9.56994  26.4%     -    1s
     0     0    9.56994    0  372   13.00000    9.56994  26.4%     -    1s
     0     2    9.56994    0  372   13.00000    9.56994  26.4%     -    1s

Cutting planes:
  Gomory: 10
  Clique: 2
  Zero half: 16
  RLT: 5
  BQP: 1

Explored 145 nodes (14538 simplex iterations) in 2.86 seconds (1.13 work units)
Thread count was 20 (of 20 available processors)

Solution count 1: 13 

Optimal solution found (tolerance 0.00e+00)
Best objective 1.300000000000e+01, best bound 1.300000000000e+01, gap 0.0000%
